39638 38922 
39216 39159 
40026 38731 
39203 39200 
39278 39135 
38455 39604 
38869 39469 
38915 39399 
39475 38935 
39393 39078 
38515 39538 
38539 39529 
38276 39776 
37413 39964 
37843 39848 
37369 40050 
39792 38853 
39105 39289 
39370 39090 
39462 38976 
39325 39110 
38502 39579 
38009 39834 
38662 39500 
37785 39873 
36958 40100 
36732 40171 
36878 40147 
39412 38993 
38830 39488 
39050 39309 
38227 39778 
37559 39944 
36652 40218 
39511 38924 
39173 39231 
38363 39659 
37736 39875 
37794 39850 
37624 39903 
37091 40086 
36717 40177 
36909 40102 
36829 40149 
